(set-info :smt-lib-version 2.6)
(set-logic QF_LRA)
(set-info :source | Clock Synchronization. Bruno Dutertre (bruno@csl.sri.com) |)
(set-info :category "industrial")
(set-info :status unsat)
(declare-fun x_0 () Real)
(declare-fun x_1 () Real)
(declare-fun x_2 () Real)
(declare-fun x_3 () Real)
(declare-fun x_4 () Real)
(declare-fun x_5 () Real)
(declare-fun x_6 () Real)
(declare-fun x_7 () Real)
(declare-fun x_8 () Real)
(declare-fun x_9 () Real)
(declare-fun x_10 () Real)
(declare-fun x_11 () Real)
(declare-fun x_12 () Real)
(declare-fun x_13 () Real)
(declare-fun x_14 () Real)
(declare-fun x_15 () Real)
(declare-fun x_16 () Real)
(declare-fun x_17 () Real)
(declare-fun x_18 () Real)
(declare-fun x_19 () Real)
(declare-fun x_20 () Real)
(declare-fun x_21 () Real)
(declare-fun x_22 () Real)
(declare-fun x_23 () Real)
(declare-fun x_24 () Real)
(declare-fun x_25 () Real)
(declare-fun x_26 () Real)
(declare-fun x_27 () Real)
(declare-fun x_28 () Real)
(declare-fun x_29 () Real)
(declare-fun x_30 () Real)
(declare-fun x_31 () Real)
(declare-fun x_32 () Real)
(declare-fun x_33 () Real)
(declare-fun x_34 () Real)
(declare-fun x_35 () Real)
(declare-fun x_36 () Real)
(declare-fun x_37 () Real)
(declare-fun x_38 () Real)
(declare-fun x_39 () Real)
(declare-fun x_40 () Real)
(declare-fun x_41 () Real)
(declare-fun x_42 () Real)
(declare-fun x_43 () Real)
(declare-fun x_44 () Real)
(declare-fun x_45 () Real)
(declare-fun x_46 () Real)
(declare-fun x_47 () Real)
(declare-fun x_48 () Real)
(declare-fun x_49 () Real)
(declare-fun x_50 () Real)
(declare-fun x_51 () Real)
(declare-fun x_52 () Real)
(declare-fun x_53 () Real)
(declare-fun x_54 () Real)
(declare-fun x_55 () Real)
(declare-fun x_56 () Real)
(declare-fun x_57 () Real)
(declare-fun x_58 () Real)
(declare-fun x_59 () Real)
(declare-fun x_60 () Real)
(declare-fun x_61 () Real)
(declare-fun x_62 () Real)
(declare-fun x_63 () Real)
(declare-fun x_64 () Real)
(declare-fun x_65 () Real)
(declare-fun x_66 () Real)
(declare-fun x_67 () Real)
(declare-fun x_68 () Real)
(declare-fun x_69 () Real)
(declare-fun x_70 () Real)
(declare-fun x_71 () Real)
(declare-fun x_72 () Real)
(declare-fun x_73 () Real)
(declare-fun x_74 () Real)
(declare-fun x_75 () Real)
(declare-fun x_76 () Real)
(declare-fun x_77 () Real)
(declare-fun x_78 () Real)
(declare-fun x_79 () Real)
(declare-fun x_80 () Real)
(declare-fun x_81 () Real)
(declare-fun x_82 () Real)
(declare-fun x_83 () Real)
(declare-fun x_84 () Real)
(declare-fun x_85 () Real)
(declare-fun x_86 () Real)
(declare-fun x_87 () Real)
(declare-fun x_88 () Real)
(declare-fun x_89 () Real)
(declare-fun x_90 () Real)
(assert (let ((?v_77 (<= x_21 x_47)) (?v_81 (<= x_24 x_47)) (?v_85 (<= x_27 x_47)) (?v_89 (<= x_30 x_47)) (?v_93 (<= x_33 x_47)) (?v_97 (<= x_36 x_47)) (?v_101 (<= x_39 x_47)) (?v_105 (<= x_42 x_47)) (?v_109 (<= x_45 x_47)) (?v_23 (= x_54 x_47)) (?v_24 (= x_55 x_47)) (?v_25 (= x_56 x_47)) (?v_26 (= x_57 x_47)) (?v_27 (= x_58 x_47)) (?v_28 (= x_59 x_47)) (?v_29 (= x_60 x_47)) (?v_30 (= x_61 x_47)) (?v_31 (= x_62 x_47))) (let ((?v_50 (not ?v_23)) (?v_53 (not ?v_24)) (?v_56 (not ?v_25)) (?v_59 (not ?v_26)) (?v_62 (not ?v_27)) (?v_65 (not ?v_28)) (?v_68 (not ?v_29)) (?v_71 (not ?v_30)) (?v_74 (not ?v_31)) (?v_22 (+ (+ x_47 x_48) x_49))) (let ((?v_78 (= x_54 ?v_22)) (?v_82 (= x_55 ?v_22)) (?v_86 (= x_56 ?v_22)) (?v_90 (= x_57 ?v_22)) (?v_94 (= x_58 ?v_22)) (?v_98 (= x_59 ?v_22)) (?v_102 (= x_60 ?v_22)) (?v_106 (= x_61 ?v_22)) (?v_110 (= x_62 ?v_22))) (let ((?v_140 (not ?v_78))) (let ((?v_113 (and ?v_77 ?v_140)) (?v_141 (not ?v_82))) (let ((?v_116 (and ?v_81 ?v_141)) (?v_142 (not ?v_86))) (let ((?v_119 (and ?v_85 ?v_142)) (?v_143 (not ?v_90))) (let ((?v_122 (and ?v_89 ?v_143)) (?v_144 (not ?v_94))) (let ((?v_125 (and ?v_93 ?v_144)) (?v_145 (not ?v_98))) (let ((?v_128 (and ?v_97 ?v_145)) (?v_146 (not ?v_102))) (let ((?v_131 (and ?v_101 ?v_146)) (?v_147 (not ?v_106))) (let ((?v_134 (and ?v_105 ?v_147)) (?v_148 (not ?v_110))) (let ((?v_137 (and ?v_109 ?v_148)) (?v_2 (- x_1 x_20)) (?v_3 (- x_21 x_22)) (?v_4 (- x_2 x_23)) (?v_5 (- x_24 x_25)) (?v_6 (- x_3 x_26)) (?v_7 (- x_27 x_28)) (?v_8 (- x_4 x_29)) (?v_9 (- x_30 x_31)) (?v_10 (- x_5 x_32)) (?v_11 (- x_33 x_34)) (?v_12 (- x_6 x_35)) (?v_13 (- x_36 x_37)) (?v_14 (- x_7 x_38)) (?v_15 (- x_39 x_40)) (?v_16 (- x_8 x_41)) (?v_17 (- x_42 x_43)) (?v_18 (- x_9 x_44)) (?v_19 (- x_45 x_46)) (?v_20 (- x_47 x_52)) (?v_21 (- x_47 x_53)) (?v_32 (- x_1 x_11)) (?v_33 (- x_21 x_63)) (?v_34 (- x_2 x_12)) (?v_35 (- x_24 x_64)) (?v_36 (- x_3 x_13)) (?v_37 (- x_27 x_65)) (?v_38 (- x_4 x_14)) (?v_39 (- x_30 x_66)) (?v_40 (- x_5 x_15)) (?v_41 (- x_33 x_67)) (?v_42 (- x_6 x_16)) (?v_43 (- x_36 x_68)) (?v_44 (- x_7 x_17)) (?v_45 (- x_39 x_69)) (?v_46 (- x_8 x_18)) (?v_47 (- x_42 x_70)) (?v_48 (- x_9 x_19)) (?v_49 (- x_45 x_71)) (?v_51 (- x_1 x_72)) (?v_52 (- x_21 x_47)) (?v_54 (- x_2 x_73)) (?v_55 (- x_24 x_47)) (?v_57 (- x_3 x_74)) (?v_58 (- x_27 x_47)) (?v_60 (- x_4 x_75)) (?v_61 (- x_30 x_47)) (?v_63 (- x_5 x_76)) (?v_64 (- x_33 x_47)) (?v_66 (- x_6 x_77)) (?v_67 (- x_36 x_47)) (?v_69 (- x_7 x_78)) (?v_70 (- x_39 x_47)) (?v_72 (- x_8 x_79)) (?v_73 (- x_42 x_47)) (?v_75 (- x_9 x_80)) (?v_76 (- x_45 x_47)) (?v_114 (- x_72 x_11))) (let ((?v_79 (* ?v_114 1000)) (?v_80 (* (- x_72 x_19) 1000)) (?v_83 (* (- x_73 x_11) 1000)) (?v_84 (* (- x_73 x_19) 1000)) (?v_87 (* (- x_74 x_11) 1000)) (?v_88 (* (- x_74 x_19) 1000)) (?v_91 (* (- x_75 x_11) 1000)) (?v_92 (* (- x_75 x_19) 1000)) (?v_95 (* (- x_76 x_11) 1000)) (?v_96 (* (- x_76 x_19) 1000)) (?v_99 (* (- x_77 x_11) 1000)) (?v_100 (* (- x_77 x_19) 1000)) (?v_103 (* (- x_78 x_11) 1000)) (?v_104 (* (- x_78 x_19) 1000)) (?v_107 (* (- x_79 x_11) 1000)) (?v_108 (* (- x_79 x_19) 1000)) (?v_111 (* (- x_80 x_11) 1000)) (?v_138 (- x_80 x_19))) (let ((?v_112 (* ?v_138 1000)) (?v_115 (- x_47 x_63)) (?v_117 (- x_73 x_12)) (?v_118 (- x_47 x_64)) (?v_120 (- x_74 x_13)) (?v_121 (- x_47 x_65)) (?v_123 (- x_75 x_14)) (?v_124 (- x_47 x_66)) (?v_126 (- x_76 x_15)) (?v_127 (- x_47 x_67)) (?v_129 (- x_77 x_16)) (?v_130 (- x_47 x_68)) (?v_132 (- x_78 x_17)) (?v_133 (- x_47 x_69)) (?v_135 (- x_79 x_18)) (?v_136 (- x_47 x_70)) (?v_139 (- x_47 x_71)) (?v_149 (- x_20 x_72)) (?v_151 (- x_23 x_73)) (?v_153 (- x_26 x_74)) (?v_154 (- x_29 x_75)) (?v_155 (- x_32 x_76)) (?v_156 (- x_35 x_77)) (?v_157 (- x_38 x_78)) (?v_158 (- x_41 x_79)) (?v_159 (- x_44 x_80)) (?v_0 (+ x_0 (/ 1001 1000))) (?v_1 (+ x_10 (/ 1001 1000))) (?v_150 (* (* x_49 999) (/ 1 1000))) (?v_152 (* (* x_49 1001) (/ 1 1000))) (?v_160 (+ (+ (+ x_50 x_51) (* (* (+ x_52 x_49) 2) (/ 1 999))) (/ 2335 666)))) (and (and (and (and (and (and (and (and (and (and (and (and (and (and (and (and (and (and (and (and (and (and (and (and (and (and (and (and (and (and (and (and (and (and (and (and (and (and (and (and (and (and (and (and (and (and (and (and (and (and (and (and (and (and (and (and (and (and (and (and (and (and (and (and (and (and (and (and (and (and (and (and (and (and (and (and (and (and (and (and (and (and (and (and (and (and (and (and (and (and (and (and (and (and (and (and (and (and (and (and (and (and (and (and (and (and (and (and (and (and (and (and (and (and (and (and (and (and (and (and (and (and (and (and (and (and (and (and (and (and (and (and (and (and (and (and (and (and (and (and (and (and (and (and (and (and (and (and (and (and (and (and (and (and (and (and (and (and (and (and (and (and (and (and (and (and (and (and (and (and (and (and (and (and (and (and (and (and (and (and (and (and (and (and (and (and (and (and (and (and (and (and (and (and (and (and (and (and (and (and (and (and (and (and (and (and (and (and (and (and (and (and (and (and (and (and (and (and (and (and (and (and (and (and (and (and (not (<= x_48 0)) (not (<= x_49 0))) (not (<= x_50 0))) (not (< x_51 (+ x_50 (* (* (+ (* (* x_49 1) (/ 1 2)) 1) 1001) (/ 1 999)))))) (< x_52 (- (* (* (- (- x_49 x_51) 1) 999) (/ 1 2)) 1))) (not (< x_52 (* (* (+ (+ (+ x_48 x_50) x_51) (/ 1501 1000)) 1001) (/ 1 999))))) (not (<= x_53 0))) (<= x_53 (- x_48 (+ (+ x_50 (* (* (+ x_49 2) 1001) (/ 1 999))) (/ 1 2))))) (<= x_0 x_1)) (<= x_0 x_2)) (<= x_0 x_3)) (<= x_0 x_4)) (<= x_0 x_5)) (<= x_0 x_6)) (<= x_0 x_7)) (<= x_0 x_8)) (<= x_0 x_9)) (<= x_1 ?v_0)) (<= x_2 ?v_0)) (<= x_3 ?v_0)) (<= x_4 ?v_0)) (<= x_5 ?v_0)) (<= x_6 ?v_0)) (<= x_7 ?v_0)) (<= x_8 ?v_0)) (<= x_9 ?v_0)) (<= x_10 x_11)) (<= x_10 x_12)) (<= x_10 x_13)) (<= x_10 x_14)) (<= x_10 x_15)) (<= x_10 x_16)) (<= x_10 x_17)) (<= x_10 x_18)) (<= x_10 x_19)) (<= x_11 ?v_1)) (<= x_12 ?v_1)) (<= x_13 ?v_1)) (<= x_14 ?v_1)) (<= x_15 ?v_1)) (<= x_16 ?v_1)) (<= x_17 ?v_1)) (<= x_18 ?v_1)) (<= x_19 ?v_1)) (<= (* (* ?v_3 999) (/ 1 1000)) ?v_2)) (<= (* (* ?v_5 999) (/ 1 1000)) ?v_4)) (<= (* (* ?v_7 999) (/ 1 1000)) ?v_6)) (<= (* (* ?v_9 999) (/ 1 1000)) ?v_8)) (<= (* (* ?v_11 999) (/ 1 1000)) ?v_10)) (<= (* (* ?v_13 999) (/ 1 1000)) ?v_12)) (<= (* (* ?v_15 999) (/ 1 1000)) ?v_14)) (<= (* (* ?v_17 999) (/ 1 1000)) ?v_16)) (<= (* (* ?v_19 999) (/ 1 1000)) ?v_18)) (<= ?v_2 (* (* ?v_3 1001) (/ 1 1000)))) (<= ?v_4 (* (* ?v_5 1001) (/ 1 1000)))) (<= ?v_6 (* (* ?v_7 1001) (/ 1 1000)))) (<= ?v_8 (* (* ?v_9 1001) (/ 1 1000)))) (<= ?v_10 (* (* ?v_11 1001) (/ 1 1000)))) (<= ?v_12 (* (* ?v_13 1001) (/ 1 1000)))) (<= ?v_14 (* (* ?v_15 1001) (/ 1 1000)))) (<= ?v_16 (* (* ?v_17 1001) (/ 1 1000)))) (<= ?v_18 (* (* ?v_19 1001) (/ 1 1000)))) (<= ?v_20 x_63)) (<= ?v_20 x_64)) (<= ?v_20 x_65)) (<= ?v_20 x_66)) (<= ?v_20 x_67)) (<= ?v_20 x_68)) (<= ?v_20 x_69)) (<= ?v_20 x_70)) (<= ?v_20 x_71)) (<= x_63 ?v_21)) (<= x_64 ?v_21)) (<= x_65 ?v_21)) (<= x_66 ?v_21)) (<= x_67 ?v_21)) (<= x_68 ?v_21)) (<= x_69 ?v_21)) (<= x_70 ?v_21)) (<= x_71 ?v_21)) (<= (- x_63 x_63) x_51)) (<= (- x_64 x_63) x_51)) (<= (- x_65 x_63) x_51)) (<= (- x_66 x_63) x_51)) (<= (- x_67 x_63) x_51)) (<= (- x_68 x_63) x_51)) (<= (- x_69 x_63) x_51)) (<= (- x_70 x_63) x_51)) (<= (- x_71 x_63) x_51)) (<= (- x_63 x_64) x_51)) (<= (- x_64 x_64) x_51)) (<= (- x_65 x_64) x_51)) (<= (- x_66 x_64) x_51)) (<= (- x_67 x_64) x_51)) (<= (- x_68 x_64) x_51)) (<= (- x_69 x_64) x_51)) (<= (- x_70 x_64) x_51)) (<= (- x_71 x_64) x_51)) (<= (- x_63 x_65) x_51)) (<= (- x_64 x_65) x_51)) (<= (- x_65 x_65) x_51)) (<= (- x_66 x_65) x_51)) (<= (- x_67 x_65) x_51)) (<= (- x_68 x_65) x_51)) (<= (- x_69 x_65) x_51)) (<= (- x_70 x_65) x_51)) (<= (- x_71 x_65) x_51)) (<= (- x_63 x_66) x_51)) (<= (- x_64 x_66) x_51)) (<= (- x_65 x_66) x_51)) (<= (- x_66 x_66) x_51)) (<= (- x_67 x_66) x_51)) (<= (- x_68 x_66) x_51)) (<= (- x_69 x_66) x_51)) (<= (- x_70 x_66) x_51)) (<= (- x_71 x_66) x_51)) (<= (- x_63 x_67) x_51)) (<= (- x_64 x_67) x_51)) (<= (- x_65 x_67) x_51)) (<= (- x_66 x_67) x_51)) (<= (- x_67 x_67) x_51)) (<= (- x_68 x_67) x_51)) (<= (- x_69 x_67) x_51)) (<= (- x_70 x_67) x_51)) (<= (- x_71 x_67) x_51)) (<= (- x_63 x_68) x_51)) (<= (- x_64 x_68) x_51)) (<= (- x_65 x_68) x_51)) (<= (- x_66 x_68) x_51)) (<= (- x_67 x_68) x_51)) (<= (- x_68 x_68) x_51)) (<= (- x_69 x_68) x_51)) (<= (- x_70 x_68) x_51)) (<= (- x_71 x_68) x_51)) (<= (- x_63 x_69) x_51)) (<= (- x_64 x_69) x_51)) (<= (- x_65 x_69) x_51)) (<= (- x_66 x_69) x_51)) (<= (- x_67 x_69) x_51)) (<= (- x_68 x_69) x_51)) (<= (- x_69 x_69) x_51)) (<= (- x_70 x_69) x_51)) (<= (- x_71 x_69) x_51)) (<= (- x_63 x_70) x_51)) (<= (- x_64 x_70) x_51)) (<= (- x_65 x_70) x_51)) (<= (- x_66 x_70) x_51)) (<= (- x_67 x_70) x_51)) (<= (- x_68 x_70) x_51)) (<= (- x_69 x_70) x_51)) (<= (- x_70 x_70) x_51)) (<= (- x_71 x_70) x_51)) (<= (- x_63 x_71) x_51)) (<= (- x_64 x_71) x_51)) (<= (- x_65 x_71) x_51)) (<= (- x_66 x_71) x_51)) (<= (- x_67 x_71) x_51)) (<= (- x_68 x_71) x_51)) (<= (- x_69 x_71) x_51)) (<= (- x_70 x_71) x_51)) (<= (- x_71 x_71) x_51)) (or (and ?v_23 (<= x_21 x_81)) ?v_78)) (or (and ?v_24 (<= x_24 x_81)) ?v_82)) (or (and ?v_25 (<= x_27 x_81)) ?v_86)) (or (and ?v_26 (<= x_30 x_81)) ?v_90)) (or (and ?v_27 (<= x_33 x_81)) ?v_94)) (or (and ?v_28 (<= x_36 x_81)) ?v_98)) (or (and ?v_29 (<= x_39 x_81)) ?v_102)) (or (and ?v_30 (<= x_42 x_81)) ?v_106)) (or (and ?v_31 (<= x_45 x_81)) ?v_110)) (or (or (or (or (or (or (or (or ?v_23 ?v_24) ?v_25) ?v_26) ?v_27) ?v_28) ?v_29) ?v_30) ?v_31)) (or ?v_50 (and (<= (* (* ?v_33 999) (/ 1 1000)) ?v_32) (<= ?v_32 (* (* ?v_33 1001) (/ 1 1000)))))) (or ?v_53 (and (<= (* (* ?v_35 999) (/ 1 1000)) ?v_34) (<= ?v_34 (* (* ?v_35 1001) (/ 1 1000)))))) (or ?v_56 (and (<= (* (* ?v_37 999) (/ 1 1000)) ?v_36) (<= ?v_36 (* (* ?v_37 1001) (/ 1 1000)))))) (or ?v_59 (and (<= (* (* ?v_39 999) (/ 1 1000)) ?v_38) (<= ?v_38 (* (* ?v_39 1001) (/ 1 1000)))))) (or ?v_62 (and (<= (* (* ?v_41 999) (/ 1 1000)) ?v_40) (<= ?v_40 (* (* ?v_41 1001) (/ 1 1000)))))) (or ?v_65 (and (<= (* (* ?v_43 999) (/ 1 1000)) ?v_42) (<= ?v_42 (* (* ?v_43 1001) (/ 1 1000)))))) (or ?v_68 (and (<= (* (* ?v_45 999) (/ 1 1000)) ?v_44) (<= ?v_44 (* (* ?v_45 1001) (/ 1 1000)))))) (or ?v_71 (and (<= (* (* ?v_47 999) (/ 1 1000)) ?v_46) (<= ?v_46 (* (* ?v_47 1001) (/ 1 1000)))))) (or ?v_74 (and (<= (* (* ?v_49 999) (/ 1 1000)) ?v_48) (<= ?v_48 (* (* ?v_49 1001) (/ 1 1000)))))) (or (or ?v_50 ?v_77) (and (and (not (< x_0 x_72)) (<= (* (* ?v_52 999) (/ 1 1000)) ?v_51)) (<= ?v_51 (* (* ?v_52 1001) (/ 1 1000)))))) (or (or ?v_53 ?v_81) (and (and (not (< x_0 x_73)) (<= (* (* ?v_55 999) (/ 1 1000)) ?v_54)) (<= ?v_54 (* (* ?v_55 1001) (/ 1 1000)))))) (or (or ?v_56 ?v_85) (and (and (not (< x_0 x_74)) (<= (* (* ?v_58 999) (/ 1 1000)) ?v_57)) (<= ?v_57 (* (* ?v_58 1001) (/ 1 1000)))))) (or (or ?v_59 ?v_89) (and (and (not (< x_0 x_75)) (<= (* (* ?v_61 999) (/ 1 1000)) ?v_60)) (<= ?v_60 (* (* ?v_61 1001) (/ 1 1000)))))) (or (or ?v_62 ?v_93) (and (and (not (< x_0 x_76)) (<= (* (* ?v_64 999) (/ 1 1000)) ?v_63)) (<= ?v_63 (* (* ?v_64 1001) (/ 1 1000)))))) (or (or ?v_65 ?v_97) (and (and (not (< x_0 x_77)) (<= (* (* ?v_67 999) (/ 1 1000)) ?v_66)) (<= ?v_66 (* (* ?v_67 1001) (/ 1 1000)))))) (or (or ?v_68 ?v_101) (and (and (not (< x_0 x_78)) (<= (* (* ?v_70 999) (/ 1 1000)) ?v_69)) (<= ?v_69 (* (* ?v_70 1001) (/ 1 1000)))))) (or (or ?v_71 ?v_105) (and (and (not (< x_0 x_79)) (<= (* (* ?v_73 999) (/ 1 1000)) ?v_72)) (<= ?v_72 (* (* ?v_73 1001) (/ 1 1000)))))) (or (or ?v_74 ?v_109) (and (and (not (< x_0 x_80)) (<= (* (* ?v_76 999) (/ 1 1000)) ?v_75)) (<= ?v_75 (* (* ?v_76 1001) (/ 1 1000)))))) (or ?v_113 (and (<= x_82 (+ (+ (* (* (+ (+ (+ x_63 (* ?v_79 (/ 1 999))) x_71) (* ?v_80 (/ 1 999))) 1) (/ 1 2)) x_50) (/ 3001 1998))) (not (< x_82 (- (- (* (* (+ (+ (+ x_63 (* ?v_79 (/ 1 1001))) x_71) (* ?v_80 (/ 1 1001))) 1) (/ 1 2)) x_50) (/ 1 2))))))) (or ?v_116 (and (<= x_83 (+ (+ (* (* (+ (+ (+ x_63 (* ?v_83 (/ 1 999))) x_71) (* ?v_84 (/ 1 999))) 1) (/ 1 2)) x_50) (/ 3001 1998))) (not (< x_83 (- (- (* (* (+ (+ (+ x_63 (* ?v_83 (/ 1 1001))) x_71) (* ?v_84 (/ 1 1001))) 1) (/ 1 2)) x_50) (/ 1 2))))))) (or ?v_119 (and (<= x_84 (+ (+ (* (* (+ (+ (+ x_63 (* ?v_87 (/ 1 999))) x_71) (* ?v_88 (/ 1 999))) 1) (/ 1 2)) x_50) (/ 3001 1998))) (not (< x_84 (- (- (* (* (+ (+ (+ x_63 (* ?v_87 (/ 1 1001))) x_71) (* ?v_88 (/ 1 1001))) 1) (/ 1 2)) x_50) (/ 1 2))))))) (or ?v_122 (and (<= x_85 (+ (+ (* (* (+ (+ (+ x_63 (* ?v_91 (/ 1 999))) x_71) (* ?v_92 (/ 1 999))) 1) (/ 1 2)) x_50) (/ 3001 1998))) (not (< x_85 (- (- (* (* (+ (+ (+ x_63 (* ?v_91 (/ 1 1001))) x_71) (* ?v_92 (/ 1 1001))) 1) (/ 1 2)) x_50) (/ 1 2))))))) (or ?v_125 (and (<= x_86 (+ (+ (* (* (+ (+ (+ x_63 (* ?v_95 (/ 1 999))) x_71) (* ?v_96 (/ 1 999))) 1) (/ 1 2)) x_50) (/ 3001 1998))) (not (< x_86 (- (- (* (* (+ (+ (+ x_63 (* ?v_95 (/ 1 1001))) x_71) (* ?v_96 (/ 1 1001))) 1) (/ 1 2)) x_50) (/ 1 2))))))) (or ?v_128 (and (<= x_87 (+ (+ (* (* (+ (+ (+ x_63 (* ?v_99 (/ 1 999))) x_71) (* ?v_100 (/ 1 999))) 1) (/ 1 2)) x_50) (/ 3001 1998))) (not (< x_87 (- (- (* (* (+ (+ (+ x_63 (* ?v_99 (/ 1 1001))) x_71) (* ?v_100 (/ 1 1001))) 1) (/ 1 2)) x_50) (/ 1 2))))))) (or ?v_131 (and (<= x_88 (+ (+ (* (* (+ (+ (+ x_63 (* ?v_103 (/ 1 999))) x_71) (* ?v_104 (/ 1 999))) 1) (/ 1 2)) x_50) (/ 3001 1998))) (not (< x_88 (- (- (* (* (+ (+ (+ x_63 (* ?v_103 (/ 1 1001))) x_71) (* ?v_104 (/ 1 1001))) 1) (/ 1 2)) x_50) (/ 1 2))))))) (or ?v_134 (and (<= x_89 (+ (+ (* (* (+ (+ (+ x_63 (* ?v_107 (/ 1 999))) x_71) (* ?v_108 (/ 1 999))) 1) (/ 1 2)) x_50) (/ 3001 1998))) (not (< x_89 (- (- (* (* (+ (+ (+ x_63 (* ?v_107 (/ 1 1001))) x_71) (* ?v_108 (/ 1 1001))) 1) (/ 1 2)) x_50) (/ 1 2))))))) (or ?v_137 (and (<= x_90 (+ (+ (* (* (+ (+ (+ x_63 (* ?v_111 (/ 1 999))) x_71) (* ?v_112 (/ 1 999))) 1) (/ 1 2)) x_50) (/ 3001 1998))) (not (< x_90 (- (- (* (* (+ (+ (+ x_63 (* ?v_111 (/ 1 1001))) x_71) (* ?v_112 (/ 1 1001))) 1) (/ 1 2)) x_50) (/ 1 2))))))) (or ?v_113 (and (<= (* (* ?v_115 999) (/ 1 1000)) ?v_114) (<= ?v_114 (* (* ?v_115 1001) (/ 1 1000)))))) (or ?v_116 (and (<= (* (* ?v_118 999) (/ 1 1000)) ?v_117) (<= ?v_117 (* (* ?v_118 1001) (/ 1 1000)))))) (or ?v_119 (and (<= (* (* ?v_121 999) (/ 1 1000)) ?v_120) (<= ?v_120 (* (* ?v_121 1001) (/ 1 1000)))))) (or ?v_122 (and (<= (* (* ?v_124 999) (/ 1 1000)) ?v_123) (<= ?v_123 (* (* ?v_124 1001) (/ 1 1000)))))) (or ?v_125 (and (<= (* (* ?v_127 999) (/ 1 1000)) ?v_126) (<= ?v_126 (* (* ?v_127 1001) (/ 1 1000)))))) (or ?v_128 (and (<= (* (* ?v_130 999) (/ 1 1000)) ?v_129) (<= ?v_129 (* (* ?v_130 1001) (/ 1 1000)))))) (or ?v_131 (and (<= (* (* ?v_133 999) (/ 1 1000)) ?v_132) (<= ?v_132 (* (* ?v_133 1001) (/ 1 1000)))))) (or ?v_134 (and (<= (* (* ?v_136 999) (/ 1 1000)) ?v_135) (<= ?v_135 (* (* ?v_136 1001) (/ 1 1000)))))) (or ?v_137 (and (<= (* (* ?v_139 999) (/ 1 1000)) ?v_138) (<= ?v_138 (* (* ?v_139 1001) (/ 1 1000)))))) (or ?v_140 (= x_22 (+ x_82 x_49)))) (or ?v_141 (= x_25 (+ x_83 x_49)))) (or ?v_142 (= x_28 (+ x_84 x_49)))) (or ?v_143 (= x_31 (+ x_85 x_49)))) (or ?v_144 (= x_34 (+ x_86 x_49)))) (or ?v_145 (= x_37 (+ x_87 x_49)))) (or ?v_146 (= x_40 (+ x_88 x_49)))) (or ?v_147 (= x_43 (+ x_89 x_49)))) (or ?v_148 (= x_46 (+ x_90 x_49)))) (or ?v_140 (and (<= ?v_150 ?v_149) (<= ?v_149 ?v_152)))) (or ?v_141 (and (<= ?v_150 ?v_151) (<= ?v_151 ?v_152)))) (or ?v_142 (and (<= ?v_150 ?v_153) (<= ?v_153 ?v_152)))) (or ?v_143 (and (<= ?v_150 ?v_154) (<= ?v_154 ?v_152)))) (or ?v_144 (and (<= ?v_150 ?v_155) (<= ?v_155 ?v_152)))) (or ?v_145 (and (<= ?v_150 ?v_156) (<= ?v_156 ?v_152)))) (or ?v_146 (and (<= ?v_150 ?v_157) (<= ?v_157 ?v_152)))) (or ?v_147 (and (<= ?v_150 ?v_158) (<= ?v_158 ?v_152)))) (or ?v_148 (and (<= ?v_150 ?v_159) (<= ?v_159 ?v_152)))) (= x_81 (+ x_47 x_49))) (or (or (or (or (or (or (or (or (or (or (or (or (or (or (or (or (or (or (or (or (or (or (or (or (or (or (or (or (or (or (or (or (or (or (or (or (or (or (or (or (or (or (or (or (or (or (or (or (or (or (or (or (or (or (or (or (or (or (or (or (or (or (or (or (or (or (or (or (or (or (or (or (or (or (or (or (or (or (or (or (not (<= (- x_21 x_21) ?v_160)) (not (<= (- x_24 x_21) ?v_160))) (not (<= (- x_27 x_21) ?v_160))) (not (<= (- x_30 x_21) ?v_160))) (not (<= (- x_33 x_21) ?v_160))) (not (<= (- x_36 x_21) ?v_160))) (not (<= (- x_39 x_21) ?v_160))) (not (<= (- x_42 x_21) ?v_160))) (not (<= (- x_45 x_21) ?v_160))) (not (<= (- x_21 x_24) ?v_160))) (not (<= (- x_24 x_24) ?v_160))) (not (<= (- x_27 x_24) ?v_160))) (not (<= (- x_30 x_24) ?v_160))) (not (<= (- x_33 x_24) ?v_160))) (not (<= (- x_36 x_24) ?v_160))) (not (<= (- x_39 x_24) ?v_160))) (not (<= (- x_42 x_24) ?v_160))) (not (<= (- x_45 x_24) ?v_160))) (not (<= (- x_21 x_27) ?v_160))) (not (<= (- x_24 x_27) ?v_160))) (not (<= (- x_27 x_27) ?v_160))) (not (<= (- x_30 x_27) ?v_160))) (not (<= (- x_33 x_27) ?v_160))) (not (<= (- x_36 x_27) ?v_160))) (not (<= (- x_39 x_27) ?v_160))) (not (<= (- x_42 x_27) ?v_160))) (not (<= (- x_45 x_27) ?v_160))) (not (<= (- x_21 x_30) ?v_160))) (not (<= (- x_24 x_30) ?v_160))) (not (<= (- x_27 x_30) ?v_160))) (not (<= (- x_30 x_30) ?v_160))) (not (<= (- x_33 x_30) ?v_160))) (not (<= (- x_36 x_30) ?v_160))) (not (<= (- x_39 x_30) ?v_160))) (not (<= (- x_42 x_30) ?v_160))) (not (<= (- x_45 x_30) ?v_160))) (not (<= (- x_21 x_33) ?v_160))) (not (<= (- x_24 x_33) ?v_160))) (not (<= (- x_27 x_33) ?v_160))) (not (<= (- x_30 x_33) ?v_160))) (not (<= (- x_33 x_33) ?v_160))) (not (<= (- x_36 x_33) ?v_160))) (not (<= (- x_39 x_33) ?v_160))) (not (<= (- x_42 x_33) ?v_160))) (not (<= (- x_45 x_33) ?v_160))) (not (<= (- x_21 x_36) ?v_160))) (not (<= (- x_24 x_36) ?v_160))) (not (<= (- x_27 x_36) ?v_160))) (not (<= (- x_30 x_36) ?v_160))) (not (<= (- x_33 x_36) ?v_160))) (not (<= (- x_36 x_36) ?v_160))) (not (<= (- x_39 x_36) ?v_160))) (not (<= (- x_42 x_36) ?v_160))) (not (<= (- x_45 x_36) ?v_160))) (not (<= (- x_21 x_39) ?v_160))) (not (<= (- x_24 x_39) ?v_160))) (not (<= (- x_27 x_39) ?v_160))) (not (<= (- x_30 x_39) ?v_160))) (not (<= (- x_33 x_39) ?v_160))) (not (<= (- x_36 x_39) ?v_160))) (not (<= (- x_39 x_39) ?v_160))) (not (<= (- x_42 x_39) ?v_160))) (not (<= (- x_45 x_39) ?v_160))) (not (<= (- x_21 x_42) ?v_160))) (not (<= (- x_24 x_42) ?v_160))) (not (<= (- x_27 x_42) ?v_160))) (not (<= (- x_30 x_42) ?v_160))) (not (<= (- x_33 x_42) ?v_160))) (not (<= (- x_36 x_42) ?v_160))) (not (<= (- x_39 x_42) ?v_160))) (not (<= (- x_42 x_42) ?v_160))) (not (<= (- x_45 x_42) ?v_160))) (not (<= (- x_21 x_45) ?v_160))) (not (<= (- x_24 x_45) ?v_160))) (not (<= (- x_27 x_45) ?v_160))) (not (<= (- x_30 x_45) ?v_160))) (not (<= (- x_33 x_45) ?v_160))) (not (<= (- x_36 x_45) ?v_160))) (not (<= (- x_39 x_45) ?v_160))) (not (<= (- x_42 x_45) ?v_160))) (not (<= (- x_45 x_45) ?v_160))))))))))))))))))))
(check-sat)
(exit)
